io-tp/f3-ex1.lp
\ENCODING=ISO-8859-1
\Problem name: IloCplex

Maximize
 obj: x1 + x2 + x3
Subject To
 c1: 2 x1 + x2 <= 6
 c2: 4 x1 + x2 <= 8
 c3: x1 + 2 x2 >= 4
 c4: x2 <= 4
Bounds
      x3 = 0
End
